without_loop_formulas/r_ha-noi-bus_20140107_0005_subgraph_bus_gr_bz2_lp_lp_paths_tw3.lp.cnf
p cnf 790 1815
c 82 select(1,22)
c 83 nots(1,22)
c 84 select(1,39)
c 85 nots(1,39)
c 86 reach(39)
c 87 reach(22)
c 88 select(22,1)
c 89 nots(22,1)
c 90 select(22,7)
c 91 nots(22,7)
c 92 select(39,1)
c 93 nots(39,1)
c 94 select(39,5)
c 95 nots(39,5)
c 96 reach(5)
c 97 reach(7)
c 98 select(7,44)
c 99 nots(7,44)
c 100 select(7,22)
c 101 nots(7,22)
c 102 select(5,36)
c 103 nots(5,36)
c 104 select(5,39)
c 105 nots(5,39)
c 106 reach(36)
c 107 reach(44)
c 108 select(44,7)
c 109 nots(44,7)
c 110 select(44,21)
c 111 nots(44,21)
c 112 select(36,5)
c 113 nots(36,5)
c 114 select(36,29)
c 115 nots(36,29)
c 116 reach(29)
c 117 reach(21)
c 118 select(21,14)
c 119 nots(21,14)
c 120 select(21,44)
c 121 nots(21,44)
c 122 select(29,66)
c 123 nots(29,66)
c 124 select(29,36)
c 125 nots(29,36)
c 126 select(29,38)
c 127 nots(29,38)
c 128 reach(38)
c 129 reach(66)
c 130 reach(14)
c 131 select(66,29)
c 132 nots(66,29)
c 133 select(38,29)
c 134 nots(38,29)
c 135 select(14,27)
c 136 nots(14,27)
c 137 select(14,21)
c 138 nots(14,21)
c 139 select(66,69)
c 140 nots(66,69)
c 141 select(38,42)
c 142 nots(38,42)
c 143 reach(42)
c 144 reach(69)
c 145 reach(27)
c 146 select(27,2)
c 147 nots(27,2)
c 148 select(27,14)
c 149 nots(27,14)
c 150 select(69,53)
c 151 nots(69,53)
c 152 select(69,66)
c 153 nots(69,66)
c 154 select(42,38)
c 155 nots(42,38)
c 156 select(27,70)
c 157 nots(27,70)
c 158 select(42,77)
c 159 nots(42,77)
c 160 reach(77)
c 161 reach(70)
c 162 reach(53)
c 163 reach(2)
c 164 select(53,41)
c 165 nots(53,41)
c 166 select(70,27)
c 167 nots(70,27)
c 168 select(77,42)
c 169 nots(77,42)
c 170 select(77,54)
c 171 nots(77,54)
c 172 select(2,16)
c 173 nots(2,16)
c 174 select(2,27)
c 175 nots(2,27)
c 176 select(53,69)
c 177 nots(53,69)
c 178 reach(16)
c 179 reach(54)
c 180 reach(41)
c 181 select(16,2)
c 182 nots(16,2)
c 183 select(41,65)
c 184 nots(41,65)
c 185 select(41,53)
c 186 nots(41,53)
c 187 select(54,77)
c 188 nots(54,77)
c 189 select(54,79)
c 190 nots(54,79)
c 191 select(16,45)
c 192 nots(16,45)
c 193 reach(45)
c 194 reach(79)
c 195 reach(65)
c 196 select(65,12)
c 197 nots(65,12)
c 198 select(65,41)
c 199 nots(65,41)
c 200 select(79,17)
c 201 nots(79,17)
c 202 select(79,54)
c 203 nots(79,54)
c 204 select(45,16)
c 205 nots(45,16)
c 206 select(45,25)
c 207 nots(45,25)
c 208 reach(25)
c 209 reach(17)
c 210 reach(12)
c 211 select(12,65)
c 212 nots(12,65)
c 213 select(12,18)
c 214 nots(12,18)
c 215 select(17,19)
c 216 nots(17,19)
c 217 select(17,79)
c 218 nots(17,79)
c 219 select(25,45)
c 220 nots(25,45)
c 221 select(25,71)
c 222 nots(25,71)
c 223 reach(71)
c 224 reach(19)
c 225 reach(18)
c 226 select(18,12)
c 227 nots(18,12)
c 228 select(19,17)
c 229 nots(19,17)
c 230 select(71,25)
c 231 nots(71,25)
c 232 select(71,59)
c 233 nots(71,59)
c 234 select(18,67)
c 235 nots(18,67)
c 236 select(19,62)
c 237 nots(19,62)
c 238 reach(62)
c 239 reach(67)
c 240 reach(59)
c 241 select(59,50)
c 242 nots(59,50)
c 243 select(67,18)
c 244 nots(67,18)
c 245 select(67,47)
c 246 nots(67,47)
c 247 select(67,60)
c 248 nots(67,60)
c 249 select(62,11)
c 250 nots(62,11)
c 251 select(62,19)
c 252 nots(62,19)
c 253 select(59,71)
c 254 nots(59,71)
c 255 reach(11)
c 256 reach(60)
c 257 reach(47)
c 258 reach(50)
c 259 select(50,34)
c 260 nots(50,34)
c 261 select(47,6)
c 262 nots(47,6)
c 263 select(60,49)
c 264 nots(60,49)
c 265 select(50,59)
c 266 nots(50,59)
c 267 select(47,67)
c 268 nots(47,67)
c 269 select(60,67)
c 270 nots(60,67)
c 271 select(11,62)
c 272 nots(11,62)
c 273 select(11,23)
c 274 nots(11,23)
c 275 reach(23)
c 276 reach(49)
c 277 reach(6)
c 278 reach(34)
c 279 select(34,15)
c 280 nots(34,15)
c 281 select(23,11)
c 282 nots(23,11)
c 283 select(34,50)
c 284 nots(34,50)
c 285 select(6,35)
c 286 nots(6,35)
c 287 select(6,47)
c 288 nots(6,47)
c 289 select(49,60)
c 290 nots(49,60)
c 291 select(49,52)
c 292 nots(49,52)
c 293 select(23,33)
c 294 nots(23,33)
c 295 reach(33)
c 296 reach(52)
c 297 reach(35)
c 298 reach(15)
c 299 select(35,6)
c 300 nots(35,6)
c 301 select(35,31)
c 302 nots(35,31)
c 303 select(52,46)
c 304 nots(52,46)
c 305 select(52,49)
c 306 nots(52,49)
c 307 select(33,23)
c 308 nots(33,23)
c 309 select(15,74)
c 310 nots(15,74)
c 311 select(15,34)
c 312 nots(15,34)
c 313 select(33,57)
c 314 nots(33,57)
c 315 reach(57)
c 316 reach(74)
c 317 reach(46)
c 318 reach(31)
c 319 select(74,15)
c 320 nots(74,15)
c 321 select(74,72)
c 322 nots(74,72)
c 323 select(57,33)
c 324 nots(57,33)
c 325 select(57,56)
c 326 nots(57,56)
c 327 select(31,35)
c 328 nots(31,35)
c 329 select(31,78)
c 330 nots(31,78)
c 331 select(46,52)
c 332 nots(46,52)
c 333 select(46,61)
c 334 nots(46,61)
c 335 reach(61)
c 336 reach(78)
c 337 reach(56)
c 338 reach(72)
c 339 select(72,63)
c 340 nots(72,63)
c 341 select(56,43)
c 342 nots(56,43)
c 343 select(78,20)
c 344 nots(78,20)
c 345 select(78,31)
c 346 nots(78,31)
c 347 select(61,30)
c 348 nots(61,30)
c 349 select(61,46)
c 350 nots(61,46)
c 351 select(72,74)
c 352 nots(72,74)
c 353 select(56,57)
c 354 nots(56,57)
c 355 reach(30)
c 356 reach(20)
c 357 reach(43)
c 358 reach(63)
c 359 select(20,8)
c 360 nots(20,8)
c 361 select(30,13)
c 362 nots(30,13)
c 363 select(63,72)
c 364 nots(63,72)
c 365 select(63,76)
c 366 nots(63,76)
c 367 select(43,56)
c 368 nots(43,56)
c 369 select(43,64)
c 370 nots(43,64)
c 371 select(20,78)
c 372 nots(20,78)
c 373 select(30,61)
c 374 nots(30,61)
c 375 reach(64)
c 376 reach(76)
c 377 reach(13)
c 378 reach(8)
c 379 select(76,4)
c 380 nots(76,4)
c 381 select(76,63)
c 382 nots(76,63)
c 383 select(64,43)
c 384 nots(64,43)
c 385 select(8,20)
c 386 nots(8,20)
c 387 select(8,68)
c 388 nots(8,68)
c 389 select(13,26)
c 390 nots(13,26)
c 391 select(13,30)
c 392 nots(13,30)
c 393 reach(26)
c 394 reach(68)
c 395 reach(4)
c 396 select(68,8)
c 397 nots(68,8)
c 398 select(68,51)
c 399 nots(68,51)
c 400 select(26,13)
c 401 nots(26,13)
c 402 select(4,28)
c 403 nots(4,28)
c 404 select(4,76)
c 405 nots(4,76)
c 406 select(26,32)
c 407 nots(26,32)
c 408 reach(32)
c 409 reach(28)
c 410 reach(51)
c 411 select(28,4)
c 412 nots(28,4)
c 413 select(28,10)
c 414 nots(28,10)
c 415 select(32,26)
c 416 nots(32,26)
c 417 select(51,75)
c 418 nots(51,75)
c 419 select(51,68)
c 420 nots(51,68)
c 421 select(32,48)
c 422 nots(32,48)
c 423 reach(48)
c 424 reach(75)
c 425 reach(10)
c 426 select(10,9)
c 427 nots(10,9)
c 428 select(75,3)
c 429 nots(75,3)
c 430 select(75,51)
c 431 nots(75,51)
c 432 select(48,32)
c 433 nots(48,32)
c 434 select(10,28)
c 435 nots(10,28)
c 436 select(48,58)
c 437 nots(48,58)
c 438 reach(58)
c 439 reach(3)
c 440 reach(9)
c 441 select(9,3)
c 442 nots(9,3)
c 443 select(58,48)
c 444 nots(58,48)
c 445 select(9,10)
c 446 nots(9,10)
c 447 select(3,9)
c 448 nots(3,9)
c 449 select(3,75)
c 450 nots(3,75)
c 451 select(3,37)
c 452 nots(3,37)
c 453 select(58,73)
c 454 nots(58,73)
c 455 reach(73)
c 456 reach(37)
c 457 select(37,3)
c 458 nots(37,3)
c 459 select(73,24)
c 460 nots(73,24)
c 461 select(73,58)
c 462 nots(73,58)
c 463 reach(24)
c 464 select(24,73)
c 465 nots(24,73)
c 466 select(24,55)
c 467 nots(24,55)
c 468 reach(55)
c 469 select(55,24)
c 470 nots(55,24)
c 471 select(55,40)
c 472 nots(55,40)
c 473 reach(40)
c 474 select(40,55)
c 475 nots(40,55)
c 556 edge(1,22)
c 557 edge(1,39)
c 558 edge(2,16)
c 559 edge(2,27)
c 560 edge(3,9)
c 561 edge(3,75)
c 562 edge(3,37)
c 563 edge(4,28)
c 564 edge(4,76)
c 565 edge(5,36)
c 566 edge(5,39)
c 567 edge(6,35)
c 568 edge(6,47)
c 569 edge(7,44)
c 570 edge(7,22)
c 571 edge(8,20)
c 572 edge(8,68)
c 573 edge(9,10)
c 574 edge(10,28)
c 575 edge(11,62)
c 576 edge(11,23)
c 577 edge(12,65)
c 578 edge(12,18)
c 579 edge(13,26)
c 580 edge(13,30)
c 581 edge(14,27)
c 582 edge(14,21)
c 583 edge(15,74)
c 584 edge(15,34)
c 585 edge(16,45)
c 586 edge(17,19)
c 587 edge(17,79)
c 588 edge(18,67)
c 589 edge(19,62)
c 590 edge(20,78)
c 591 edge(21,44)
c 592 edge(23,33)
c 593 edge(24,73)
c 594 edge(24,55)
c 595 edge(25,45)
c 596 edge(25,71)
c 597 edge(26,32)
c 598 edge(27,70)
c 599 edge(29,66)
c 600 edge(29,36)
c 601 edge(29,38)
c 602 edge(30,61)
c 603 edge(31,35)
c 604 edge(31,78)
c 605 edge(32,48)
c 606 edge(33,57)
c 607 edge(34,50)
c 608 edge(38,42)
c 609 edge(40,55)
c 610 edge(41,65)
c 611 edge(41,53)
c 612 edge(42,77)
c 613 edge(43,56)
c 614 edge(43,64)
c 615 edge(46,52)
c 616 edge(46,61)
c 617 edge(47,67)
c 618 edge(48,58)
c 619 edge(49,60)
c 620 edge(49,52)
c 621 edge(50,59)
c 622 edge(51,75)
c 623 edge(51,68)
c 624 edge(53,69)
c 625 edge(54,77)
c 626 edge(54,79)
c 627 edge(56,57)
c 628 edge(58,73)
c 629 edge(59,71)
c 630 edge(60,67)
c 631 edge(63,72)
c 632 edge(63,76)
c 633 edge(66,69)
c 634 edge(72,74)
c 635 reach(1)
c 636 goal(79)
82 83 0
-82 -83 0
84 85 0
-84 -85 0
637 -84 0
-637 84 0
638 -82 0
-638 82 0
88 -87 89 0
-88 87 0
-88 -89 0
90 -87 91 0
-90 87 0
-90 -91 0
92 -86 93 0
-92 86 0
-92 -93 0
94 -86 95 0
-94 86 0
-94 -95 0
639 -94 0
-639 94 0
640 -90 0
-640 90 0
98 -97 99 0
-98 97 0
-98 -99 0
100 -97 101 0
-100 97 0
-100 -101 0
102 -96 103 0
-102 96 0
-102 -103 0
104 -96 105 0
-104 96 0
-104 -105 0
641 -104 0
-641 104 0
642 -102 0
-642 102 0
643 -100 0
-643 100 0
644 -98 0
-644 98 0
108 -107 109 0
-108 107 0
-108 -109 0
110 -107 111 0
-110 107 0
-110 -111 0
112 -106 113 0
-112 106 0
-112 -113 0
114 -106 115 0
-114 106 0
-114 -115 0
645 -114 0
-645 114 0
646 -112 0
-646 112 0
647 -110 0
-647 110 0
648 -108 0
-648 108 0
118 -117 119 0
-118 117 0
-118 -119 0
120 -117 121 0
-120 117 0
-120 -121 0
122 -116 123 0
-122 116 0
-122 -123 0
124 -116 125 0
-124 116 0
-124 -125 0
126 -116 127 0
-126 116 0
-126 -127 0
649 -126 0
-649 126 0
650 -124 0
-650 124 0
651 -122 0
-651 122 0
652 -120 0
-652 120 0
653 -118 0
-653 118 0
131 -129 132 0
-131 129 0
-131 -132 0
133 -128 134 0
-133 128 0
-133 -134 0
135 -130 136 0
-135 130 0
-135 -136 0
137 -130 138 0
-137 130 0
-137 -138 0
139 -129 140 0
-139 129 0
-139 -140 0
141 -128 142 0
-141 128 0
-141 -142 0
654 -141 0
-654 141 0
655 -139 0
-655 139 0
656 -137 0
-656 137 0
657 -135 0
-657 135 0
658 -133 0
-658 133 0
659 -131 0
-659 131 0
146 -145 147 0
-146 145 0
-146 -147 0
148 -145 149 0
-148 145 0
-148 -149 0
150 -144 151 0
-150 144 0
-150 -151 0
152 -144 153 0
-152 144 0
-152 -153 0
154 -143 155 0
-154 143 0
-154 -155 0
156 -145 157 0
-156 145 0
-156 -157 0
158 -143 159 0
-158 143 0
-158 -159 0
660 -158 0
-660 158 0
161 -156 0
-161 156 0
661 -154 0
-661 154 0
662 -152 0
-662 152 0
663 -150 0
-663 150 0
664 -148 0
-664 148 0
665 -146 0
-665 146 0
164 -162 165 0
-164 162 0
-164 -165 0
166 -161 167 0
-166 161 0
-166 -167 0
168 -160 169 0
-168 160 0
-168 -169 0
170 -160 171 0
-170 160 0
-170 -171 0
172 -163 173 0
-172 163 0
-172 -173 0
174 -163 175 0
-174 163 0
-174 -175 0
176 -162 177 0
-176 162 0
-176 -177 0
666 -176 0
-666 176 0
667 -174 0
-667 174 0
668 -172 0
-668 172 0
669 -170 0
-669 170 0
670 -168 0
-670 168 0
671 -166 0
-671 166 0
672 -164 0
-672 164 0
181 -178 182 0
-181 178 0
-181 -182 0
183 -180 184 0
-183 180 0
-183 -184 0
185 -180 186 0
-185 180 0
-185 -186 0
187 -179 188 0
-187 179 0
-187 -188 0
189 -179 190 0
-189 179 0
-189 -190 0
191 -178 192 0
-191 178 0
-191 -192 0
673 -191 0
-673 191 0
674 -189 0
-674 189 0
675 -187 0
-675 187 0
676 -185 0
-676 185 0
677 -183 0
-677 183 0
678 -181 0
-678 181 0
196 -195 197 0
-196 195 0
-196 -197 0
198 -195 199 0
-198 195 0
-198 -199 0
200 -194 201 0
-200 194 0
-200 -201 0
202 -194 203 0
-202 194 0
-202 -203 0
204 -193 205 0
-204 193 0
-204 -205 0
206 -193 207 0
-206 193 0
-206 -207 0
679 -206 0
-679 206 0
680 -204 0
-680 204 0
681 -202 0
-681 202 0
682 -200 0
-682 200 0
683 -198 0
-683 198 0
684 -196 0
-684 196 0
211 -210 212 0
-211 210 0
-211 -212 0
213 -210 214 0
-213 210 0
-213 -214 0
215 -209 216 0
-215 209 0
-215 -216 0
217 -209 218 0
-217 209 0
-217 -218 0
219 -208 220 0
-219 208 0
-219 -220 0
221 -208 222 0
-221 208 0
-221 -222 0
685 -221 0
-685 221 0
686 -219 0
-686 219 0
687 -217 0
-687 217 0
688 -215 0
-688 215 0
689 -213 0
-689 213 0
690 -211 0
-690 211 0
226 -225 227 0
-226 225 0
-226 -227 0
228 -224 229 0
-228 224 0
-228 -229 0
230 -223 231 0
-230 223 0
-230 -231 0
232 -223 233 0
-232 223 0
-232 -233 0
234 -225 235 0
-234 225 0
-234 -235 0
236 -224 237 0
-236 224 0
-236 -237 0
691 -236 0
-691 236 0
692 -234 0
-692 234 0
693 -232 0
-693 232 0
694 -230 0
-694 230 0
695 -228 0
-695 228 0
696 -226 0
-696 226 0
241 -240 242 0
-241 240 0
-241 -242 0
243 -239 244 0
-243 239 0
-243 -244 0
245 -239 246 0
-245 239 0
-245 -246 0
247 -239 248 0
-247 239 0
-247 -248 0
249 -238 250 0
-249 238 0
-249 -250 0
251 -238 252 0
-251 238 0
-251 -252 0
253 -240 254 0
-253 240 0
-253 -254 0
697 -253 0
-697 253 0
698 -251 0
-698 251 0
699 -249 0
-699 249 0
700 -247 0
-700 247 0
701 -245 0
-701 245 0
702 -243 0
-702 243 0
703 -241 0
-703 241 0
259 -258 260 0
-259 258 0
-259 -260 0
261 -257 262 0
-261 257 0
-261 -262 0
263 -256 264 0
-263 256 0
-263 -264 0
265 -258 266 0
-265 258 0
-265 -266 0
267 -257 268 0
-267 257 0
-267 -268 0
269 -256 270 0
-269 256 0
-269 -270 0
271 -255 272 0
-271 255 0
-271 -272 0
273 -255 274 0
-273 255 0
-273 -274 0
704 -273 0
-704 273 0
705 -271 0
-705 271 0
706 -269 0
-706 269 0
707 -267 0
-707 267 0
708 -265 0
-708 265 0
709 -263 0
-709 263 0
710 -261 0
-710 261 0
711 -259 0
-711 259 0
279 -278 280 0
-279 278 0
-279 -280 0
281 -275 282 0
-281 275 0
-281 -282 0
283 -278 284 0
-283 278 0
-283 -284 0
285 -277 286 0
-285 277 0
-285 -286 0
287 -277 288 0
-287 277 0
-287 -288 0
289 -276 290 0
-289 276 0
-289 -290 0
291 -276 292 0
-291 276 0
-291 -292 0
293 -275 294 0
-293 275 0
-293 -294 0
712 -293 0
-712 293 0
713 -291 0
-713 291 0
714 -289 0
-714 289 0
715 -287 0
-715 287 0
716 -285 0
-716 285 0
717 -283 0
-717 283 0
718 -281 0
-718 281 0
719 -279 0
-719 279 0
299 -297 300 0
-299 297 0
-299 -300 0
301 -297 302 0
-301 297 0
-301 -302 0
303 -296 304 0
-303 296 0
-303 -304 0
305 -296 306 0
-305 296 0
-305 -306 0
307 -295 308 0
-307 295 0
-307 -308 0
309 -298 310 0
-309 298 0
-309 -310 0
311 -298 312 0
-311 298 0
-311 -312 0
313 -295 314 0
-313 295 0
-313 -314 0
720 -313 0
-720 313 0
721 -311 0
-721 311 0
722 -309 0
-722 309 0
723 -307 0
-723 307 0
724 -305 0
-724 305 0
725 -303 0
-725 303 0
726 -301 0
-726 301 0
727 -299 0
-727 299 0
319 -316 320 0
-319 316 0
-319 -320 0
321 -316 322 0
-321 316 0
-321 -322 0
323 -315 324 0
-323 315 0
-323 -324 0
325 -315 326 0
-325 315 0
-325 -326 0
327 -318 328 0
-327 318 0
-327 -328 0
329 -318 330 0
-329 318 0
-329 -330 0
331 -317 332 0
-331 317 0
-331 -332 0
333 -317 334 0
-333 317 0
-333 -334 0
728 -333 0
-728 333 0
729 -331 0
-729 331 0
730 -329 0
-730 329 0
731 -327 0
-731 327 0
732 -325 0
-732 325 0
733 -323 0
-733 323 0
734 -321 0
-734 321 0
735 -319 0
-735 319 0
339 -338 340 0
-339 338 0
-339 -340 0
341 -337 342 0
-341 337 0
-341 -342 0
343 -336 344 0
-343 336 0
-343 -344 0
345 -336 346 0
-345 336 0
-345 -346 0
347 -335 348 0
-347 335 0
-347 -348 0
349 -335 350 0
-349 335 0
-349 -350 0
351 -338 352 0
-351 338 0
-351 -352 0
353 -337 354 0
-353 337 0
-353 -354 0
736 -353 0
-736 353 0
737 -351 0
-737 351 0
738 -349 0
-738 349 0
739 -347 0
-739 347 0
740 -345 0
-740 345 0
741 -343 0
-741 343 0
742 -341 0
-742 341 0
743 -339 0
-743 339 0
359 -356 360 0
-359 356 0
-359 -360 0
361 -355 362 0
-361 355 0
-361 -362 0
363 -358 364 0
-363 358 0
-363 -364 0
365 -358 366 0
-365 358 0
-365 -366 0
367 -357 368 0
-367 357 0
-367 -368 0
369 -357 370 0
-369 357 0
-369 -370 0
371 -356 372 0
-371 356 0
-371 -372 0
373 -355 374 0
-373 355 0
-373 -374 0
744 -373 0
-744 373 0
745 -371 0
-745 371 0
375 -369 0
-375 369 0
746 -367 0
-746 367 0
747 -365 0
-747 365 0
748 -363 0
-748 363 0
749 -361 0
-749 361 0
750 -359 0
-750 359 0
379 -376 380 0
-379 376 0
-379 -380 0
381 -376 382 0
-381 376 0
-381 -382 0
383 -375 384 0
-383 375 0
-383 -384 0
385 -378 386 0
-385 378 0
-385 -386 0
387 -378 388 0
-387 378 0
-387 -388 0
389 -377 390 0
-389 377 0
-389 -390 0
391 -377 392 0
-391 377 0
-391 -392 0
751 -391 0
-751 391 0
752 -389 0
-752 389 0
753 -387 0
-753 387 0
754 -385 0
-754 385 0
755 -383 0
-755 383 0
756 -381 0
-756 381 0
757 -379 0
-757 379 0
396 -394 397 0
-396 394 0
-396 -397 0
398 -394 399 0
-398 394 0
-398 -399 0
400 -393 401 0
-400 393 0
-400 -401 0
402 -395 403 0
-402 395 0
-402 -403 0
404 -395 405 0
-404 395 0
-404 -405 0
406 -393 407 0
-406 393 0
-406 -407 0
758 -406 0
-758 406 0
759 -404 0
-759 404 0
760 -402 0
-760 402 0
761 -400 0
-761 400 0
762 -398 0
-762 398 0
763 -396 0
-763 396 0
411 -409 412 0
-411 409 0
-411 -412 0
413 -409 414 0
-413 409 0
-413 -414 0
415 -408 416 0
-415 408 0
-415 -416 0
417 -410 418 0
-417 410 0
-417 -418 0
419 -410 420 0
-419 410 0
-419 -420 0
421 -408 422 0
-421 408 0
-421 -422 0
764 -421 0
-764 421 0
765 -419 0
-765 419 0
766 -417 0
-766 417 0
767 -415 0
-767 415 0
768 -413 0
-768 413 0
769 -411 0
-769 411 0
426 -425 427 0
-426 425 0
-426 -427 0
428 -424 429 0
-428 424 0
-428 -429 0
430 -424 431 0
-430 424 0
-430 -431 0
432 -423 433 0
-432 423 0
-432 -433 0
434 -425 435 0
-434 425 0
-434 -435 0
436 -423 437 0
-436 423 0
-436 -437 0
770 -436 0
-770 436 0
771 -434 0
-771 434 0
772 -432 0
-772 432 0
773 -430 0
-773 430 0
774 -428 0
-774 428 0
775 -426 0
-775 426 0
441 -440 442 0
-441 440 0
-441 -442 0
443 -438 444 0
-443 438 0
-443 -444 0
445 -440 446 0
-445 440 0
-445 -446 0
447 -439 448 0
-447 439 0
-447 -448 0
449 -439 450 0
-449 439 0
-449 -450 0
451 -439 452 0
-451 439 0
-451 -452 0
453 -438 454 0
-453 438 0
-453 -454 0
776 -453 0
-776 453 0
456 -451 0
-456 451 0
777 -449 0
-777 449 0
778 -447 0
-778 447 0
779 -445 0
-779 445 0
780 -443 0
-780 443 0
781 -441 0
-781 441 0
457 -456 458 0
-457 456 0
-457 -458 0
459 -455 460 0
-459 455 0
-459 -460 0
461 -455 462 0
-461 455 0
-461 -462 0
782 -461 0
-782 461 0
783 -459 0
-783 459 0
784 -457 0
-784 457 0
464 -463 465 0
-464 463 0
-464 -465 0
466 -463 467 0
-466 463 0
-466 -467 0
785 -466 0
-785 466 0
786 -464 0
-786 464 0
469 -468 470 0
-469 468 0
-469 -470 0
471 -468 472 0
-471 468 0
-471 -472 0
473 -471 0
-473 471 0
787 -469 0
-787 469 0
474 -473 475 0
-474 473 0
-474 -475 0
788 -474 0
-788 474 0
89 -87 88 0
-89 87 0
-89 -88 0
93 -86 92 0
-93 86 0
-93 -92 0
182 -178 181 0
-182 178 0
-182 -181 0
147 -145 146 0
-147 145 0
-147 -146 0
442 -440 441 0
-442 440 0
-442 -441 0
429 -424 428 0
-429 424 0
-429 -428 0
458 -456 457 0
-458 456 0
-458 -457 0
412 -409 411 0
-412 409 0
-412 -411 0
380 -376 379 0
-380 376 0
-380 -379 0
113 -106 112 0
-113 106 0
-113 -112 0
95 -86 94 0
-95 86 0
-95 -94 0
300 -297 299 0
-300 297 0
-300 -299 0
262 -257 261 0
-262 257 0
-262 -261 0
109 -107 108 0
-109 107 0
-109 -108 0
91 -87 90 0
-91 87 0
-91 -90 0
360 -356 359 0
-360 356 0
-360 -359 0
397 -394 396 0
-397 394 0
-397 -396 0
427 -425 426 0
-427 425 0
-427 -426 0
414 -409 413 0
-414 409 0
-414 -413 0
250 -238 249 0
-250 238 0
-250 -249 0
282 -275 281 0
-282 275 0
-282 -281 0
197 -195 196 0
-197 195 0
-197 -196 0
227 -225 226 0
-227 225 0
-227 -226 0
401 -393 400 0
-401 393 0
-401 -400 0
362 -355 361 0
-362 355 0
-362 -361 0
149 -145 148 0
-149 145 0
-149 -148 0
119 -117 118 0
-119 117 0
-119 -118 0
320 -316 319 0
-320 316 0
-320 -319 0
280 -278 279 0
-280 278 0
-280 -279 0
205 -193 204 0
-205 193 0
-205 -204 0
229 -224 228 0
-229 224 0
-229 -228 0
201 -194 200 0
-201 194 0
-201 -200 0
244 -239 243 0
-244 239 0
-244 -243 0
252 -238 251 0
-252 238 0
-252 -251 0
344 -336 343 0
-344 336 0
-344 -343 0
111 -107 110 0
-111 107 0
-111 -110 0
308 -295 307 0
-308 295 0
-308 -307 0
460 -455 459 0
-460 455 0
-460 -459 0
470 -468 469 0
-470 468 0
-470 -469 0
207 -193 206 0
-207 193 0
-207 -206 0
231 -223 230 0
-231 223 0
-231 -230 0
416 -408 415 0
-416 408 0
-416 -415 0
167 -161 166 0
-167 161 0
-167 -166 0
132 -129 131 0
-132 129 0
-132 -131 0
115 -106 114 0
-115 106 0
-115 -114 0
134 -128 133 0
-134 128 0
-134 -133 0
348 -335 347 0
-348 335 0
-348 -347 0
302 -297 301 0
-302 297 0
-302 -301 0
346 -336 345 0
-346 336 0
-346 -345 0
433 -423 432 0
-433 423 0
-433 -432 0
324 -315 323 0
-324 315 0
-324 -323 0
260 -258 259 0
-260 258 0
-260 -259 0
155 -143 154 0
-155 143 0
-155 -154 0
472 -468 471 0
-472 468 0
-472 -471 0
199 -195 198 0
-199 195 0
-199 -198 0
165 -162 164 0
-165 162 0
-165 -164 0
169 -160 168 0
-169 160 0
-169 -168 0
342 -337 341 0
-342 337 0
-342 -341 0
384 -375 383 0
-384 375 0
-384 -383 0
304 -296 303 0
-304 296 0
-304 -303 0
350 -335 349 0
-350 335 0
-350 -349 0
246 -239 245 0
-246 239 0
-246 -245 0
444 -438 443 0
-444 438 0
-444 -443 0
264 -256 263 0
-264 256 0
-264 -263 0
306 -296 305 0
-306 296 0
-306 -305 0
242 -240 241 0
-242 240 0
-242 -241 0
431 -424 430 0
-431 424 0
-431 -430 0
399 -394 398 0
-399 394 0
-399 -398 0
151 -144 150 0
-151 144 0
-151 -150 0
171 -160 170 0
-171 160 0
-171 -170 0
203 -194 202 0
-203 194 0
-203 -202 0
326 -315 325 0
-326 315 0
-326 -325 0
462 -455 461 0
-462 455 0
-462 -461 0
233 -223 232 0
-233 223 0
-233 -232 0
248 -239 247 0
-248 239 0
-248 -247 0
340 -338 339 0
-340 338 0
-340 -339 0
382 -376 381 0
-382 376 0
-382 -381 0
153 -144 152 0
-153 144 0
-153 -152 0
322 -316 321 0
-322 316 0
-322 -321 0
83 82 0
-83 -82 0
85 84 0
-85 -84 0
173 -163 172 0
-173 163 0
-173 -172 0
175 -163 174 0
-175 163 0
-175 -174 0
448 -439 447 0
-448 439 0
-448 -447 0
450 -439 449 0
-450 439 0
-450 -449 0
452 -439 451 0
-452 439 0
-452 -451 0
403 -395 402 0
-403 395 0
-403 -402 0
405 -395 404 0
-405 395 0
-405 -404 0
103 -96 102 0
-103 96 0
-103 -102 0
105 -96 104 0
-105 96 0
-105 -104 0
286 -277 285 0
-286 277 0
-286 -285 0
288 -277 287 0
-288 277 0
-288 -287 0
99 -97 98 0
-99 97 0
-99 -98 0
101 -97 100 0
-101 97 0
-101 -100 0
386 -378 385 0
-386 378 0
-386 -385 0
388 -378 387 0
-388 378 0
-388 -387 0
446 -440 445 0
-446 440 0
-446 -445 0
435 -425 434 0
-435 425 0
-435 -434 0
272 -255 271 0
-272 255 0
-272 -271 0
274 -255 273 0
-274 255 0
-274 -273 0
212 -210 211 0
-212 210 0
-212 -211 0
214 -210 213 0
-214 210 0
-214 -213 0
390 -377 389 0
-390 377 0
-390 -389 0
392 -377 391 0
-392 377 0
-392 -391 0
136 -130 135 0
-136 130 0
-136 -135 0
138 -130 137 0
-138 130 0
-138 -137 0
310 -298 309 0
-310 298 0
-310 -309 0
312 -298 311 0
-312 298 0
-312 -311 0
192 -178 191 0
-192 178 0
-192 -191 0
216 -209 215 0
-216 209 0
-216 -215 0
218 -209 217 0
-218 209 0
-218 -217 0
235 -225 234 0
-235 225 0
-235 -234 0
237 -224 236 0
-237 224 0
-237 -236 0
372 -356 371 0
-372 356 0
-372 -371 0
121 -117 120 0
-121 117 0
-121 -120 0
294 -275 293 0
-294 275 0
-294 -293 0
465 -463 464 0
-465 463 0
-465 -464 0
467 -463 466 0
-467 463 0
-467 -466 0
220 -208 219 0
-220 208 0
-220 -219 0
222 -208 221 0
-222 208 0
-222 -221 0
407 -393 406 0
-407 393 0
-407 -406 0
157 -145 156 0
-157 145 0
-157 -156 0
123 -116 122 0
-123 116 0
-123 -122 0
125 -116 124 0
-125 116 0
-125 -124 0
127 -116 126 0
-127 116 0
-127 -126 0
374 -355 373 0
-374 355 0
-374 -373 0
328 -318 327 0
-328 318 0
-328 -327 0
330 -318 329 0
-330 318 0
-330 -329 0
422 -408 421 0
-422 408 0
-422 -421 0
314 -295 313 0
-314 295 0
-314 -313 0
284 -278 283 0
-284 278 0
-284 -283 0
142 -128 141 0
-142 128 0
-142 -141 0
475 -473 474 0
-475 473 0
-475 -474 0
184 -180 183 0
-184 180 0
-184 -183 0
186 -180 185 0
-186 180 0
-186 -185 0
159 -143 158 0
-159 143 0
-159 -158 0
368 -357 367 0
-368 357 0
-368 -367 0
370 -357 369 0
-370 357 0
-370 -369 0
332 -317 331 0
-332 317 0
-332 -331 0
334 -317 333 0
-334 317 0
-334 -333 0
268 -257 267 0
-268 257 0
-268 -267 0
437 -423 436 0
-437 423 0
-437 -436 0
290 -276 289 0
-290 276 0
-290 -289 0
292 -276 291 0
-292 276 0
-292 -291 0
266 -258 265 0
-266 258 0
-266 -265 0
418 -410 417 0
-418 410 0
-418 -417 0
420 -410 419 0
-420 410 0
-420 -419 0
177 -162 176 0
-177 162 0
-177 -176 0
188 -179 187 0
-188 179 0
-188 -187 0
190 -179 189 0
-190 179 0
-190 -189 0
354 -337 353 0
-354 337 0
-354 -353 0
454 -438 453 0
-454 438 0
-454 -453 0
254 -240 253 0
-254 240 0
-254 -253 0
270 -256 269 0
-270 256 0
-270 -269 0
364 -358 363 0
-364 358 0
-364 -363 0
366 -358 365 0
-366 358 0
-366 -365 0
140 -129 139 0
-140 129 0
-140 -139 0
352 -338 351 0
-352 338 0
-352 -351 0
789 -200 0
-789 200 0
790 -202 0
-790 202 0
194 0
-499 0
-84 -82 0
-90 -88 -87 0
-94 -92 -86 0
-98 -100 -97 0
-104 -102 -96 0
-110 -108 -107 0
-114 -112 -106 0
-120 -118 -117 0
-122 -124 -116 0
-122 -126 -116 0
-126 -124 -116 0
-135 -137 -130 0
-139 -131 -129 0
-141 -133 -128 0
-148 -146 -145 0
-152 -150 -144 0
-156 -146 -145 0
-156 -148 -145 0
-158 -154 -143 0
-170 -168 -160 0
-174 -172 -163 0
-176 -164 -162 0
-183 -185 -180 0
-189 -187 -179 0
-191 -181 -178 0
-198 -196 -195 0
-202 -200 -194 0
-206 -204 -193 0
-211 -213 -210 0
-217 -215 -209 0
-221 -219 -208 0
-232 -230 -223 0
-234 -226 -225 0
-236 -228 -224 0
-245 -243 -239 0
-247 -243 -239 0
-247 -245 -239 0
-251 -249 -238 0
-253 -241 -240 0
-265 -259 -258 0
-267 -261 -257 0
-269 -263 -256 0
-271 -273 -255 0
-283 -279 -278 0
-287 -285 -277 0
-289 -291 -276 0
-293 -281 -275 0
-301 -299 -297 0
-305 -303 -296 0
-309 -311 -298 0
-313 -307 -295 0
-321 -319 -316 0
-325 -323 -315 0
-329 -327 -318 0
-333 -331 -317 0
-345 -343 -336 0
-349 -347 -335 0
-351 -339 -338 0
-353 -341 -337 0
-365 -363 -358 0
-369 -367 -357 0
-371 -359 -356 0
-373 -361 -355 0
-381 -379 -376 0
-387 -385 -378 0
-391 -389 -377 0
-398 -396 -394 0
-404 -402 -395 0
-406 -400 -393 0
-413 -411 -409 0
-417 -419 -410 0
-421 -415 -408 0
-430 -428 -424 0
-434 -426 -425 0
-436 -432 -423 0
-445 -441 -440 0
-449 -447 -439 0
-449 -451 -439 0
-451 -447 -439 0
-453 -443 -438 0
-461 -459 -455 0
-464 -466 -463 0
-471 -469 -468 0
556 0
557 0
558 0
559 0
560 0
561 0
562 0
563 0
564 0
565 0
566 0
567 0
568 0
569 0
570 0
571 0
572 0
573 0
574 0
575 0
576 0
577 0
578 0
579 0
580 0
581 0
582 0
583 0
584 0
585 0
586 0
587 0
588 0
589 0
590 0
591 0
592 0
593 0
594 0
595 0
596 0
597 0
598 0
599 0
600 0
601 0
602 0
603 0
604 0
605 0
606 0
607 0
608 0
609 0
610 0
611 0
612 0
613 0
614 0
615 0
616 0
617 0
618 0
619 0
620 0
621 0
622 0
623 0
624 0
625 0
626 0
627 0
628 0
629 0
630 0
631 0
632 0
633 0
634 0
635 0
636 0
-1 0
-2 0
-3 0
-4 0
-5 0
-6 0
-7 0
-8 0
-9 0
-10 0
-11 0
-12 0
-13 0
-14 0
-15 0
-16 0
-17 0
-18 0
-19 0
-20 0
-21 0
-22 0
-23 0
-24 0
-25 0
-26 0
-27 0
-28 0
-29 0
-30 0
-31 0
-32 0
-33 0
-34 0
-35 0
-36 0
-37 0
-38 0
-39 0
-40 0
-41 0
-42 0
-43 0
-44 0
-45 0
-46 0
-47 0
-48 0
-49 0
-50 0
-51 0
-52 0
-53 0
-54 0
-55 0
-56 0
-57 0
-58 0
-59 0
-60 0
-61 0
-62 0
-63 0
-64 0
-65 0
-66 0
-67 0
-68 0
-69 0
-70 0
-71 0
-72 0
-73 0
-74 0
-75 0
-76 0
-77 0
-78 0
-79 0
-80 0
-81 0
-86 637 641 0
86 -637 0
86 -641 0
-87 638 643 0
87 -638 0
87 -643 0
-96 639 646 0
96 -639 0
96 -646 0
-97 640 648 0
97 -640 0
97 -648 0
-106 642 650 0
106 -642 0
106 -650 0
-107 644 652 0
107 -644 0
107 -652 0
-116 645 658 659 0
116 -645 0
116 -658 0
116 -659 0
-117 647 656 0
117 -647 0
117 -656 0
-128 649 661 0
128 -649 0
128 -661 0
-129 651 662 0
129 -651 0
129 -662 0
-130 653 664 0
130 -653 0
130 -664 0
-143 654 670 0
143 -654 0
143 -670 0
-144 655 666 0
144 -655 0
144 -666 0
-145 657 667 671 0
145 -657 0
145 -667 0
145 -671 0
-160 660 675 0
160 -660 0
160 -675 0
-162 663 676 0
162 -663 0
162 -676 0
-163 665 678 0
163 -665 0
163 -678 0
-178 668 680 0
178 -668 0
178 -680 0
-179 669 681 0
179 -669 0
179 -681 0
-180 672 683 0
180 -672 0
180 -683 0
-193 673 686 0
193 -673 0
193 -686 0
-194 674 687 0
194 -674 0
194 -687 0
-195 677 690 0
195 -677 0
195 -690 0
-208 679 694 0
208 -679 0
208 -694 0
-209 682 695 0
209 -682 0
209 -695 0
-210 684 696 0
210 -684 0
210 -696 0
-223 685 697 0
223 -685 0
223 -697 0
-224 688 698 0
224 -688 0
224 -698 0
-225 689 702 0
225 -689 0
225 -702 0
-238 691 705 0
238 -691 0
238 -705 0
-239 692 706 707 0
239 -692 0
239 -706 0
239 -707 0
-240 693 708 0
240 -693 0
240 -708 0
-255 699 718 0
255 -699 0
255 -718 0
-256 700 714 0
256 -700 0
256 -714 0
-257 701 715 0
257 -701 0
257 -715 0
-258 703 717 0
258 -703 0
258 -717 0
-275 704 723 0
275 -704 0
275 -723 0
-276 709 724 0
276 -709 0
276 -724 0
-277 710 727 0
277 -710 0
277 -727 0
-278 711 721 0
278 -711 0
278 -721 0
-295 712 733 0
295 -712 0
295 -733 0
-296 713 729 0
296 -713 0
296 -729 0
-297 716 731 0
297 -716 0
297 -731 0
-298 719 735 0
298 -719 0
298 -735 0
-315 720 736 0
315 -720 0
315 -736 0
-316 722 737 0
316 -722 0
316 -737 0
-317 725 738 0
317 -725 0
317 -738 0
-318 726 740 0
318 -726 0
318 -740 0
-335 728 744 0
335 -728 0
335 -744 0
-336 730 745 0
336 -730 0
336 -745 0
-337 732 746 0
337 -732 0
337 -746 0
-338 734 748 0
338 -734 0
338 -748 0
-355 739 751 0
355 -739 0
355 -751 0
-356 741 754 0
356 -741 0
356 -754 0
-357 742 755 0
357 -742 0
357 -755 0
-358 743 756 0
358 -743 0
358 -756 0
-376 747 759 0
376 -747 0
376 -759 0
-377 749 761 0
377 -749 0
377 -761 0
-378 750 763 0
378 -750 0
378 -763 0
-393 752 767 0
393 -752 0
393 -767 0
-394 753 765 0
394 -753 0
394 -765 0
-395 757 769 0
395 -757 0
395 -769 0
-408 758 772 0
408 -758 0
408 -772 0
-409 760 771 0
409 -760 0
409 -771 0
-410 762 773 0
410 -762 0
410 -773 0
-423 764 780 0
423 -764 0
423 -780 0
-424 766 777 0
424 -766 0
424 -777 0
-425 768 779 0
425 -768 0
425 -779 0
-438 770 782 0
438 -770 0
438 -782 0
-439 774 781 784 0
439 -774 0
439 -781 0
439 -784 0
-440 775 778 0
440 -775 0
440 -778 0
-455 776 786 0
455 -776 0
455 -786 0
-463 783 787 0
463 -783 0
463 -787 0
-468 785 788 0
468 -785 0
468 -788 0
-476 0
-477 0
-478 0
-479 0
-480 0
-481 0
-482 0
-483 0
-484 0
-485 0
-486 0
-487 0
-488 0
-489 0
-490 0
-491 0
-492 0
-493 0
-494 0
-495 0
-496 0
-497 0
-498 0
-499 789 790 0
499 -789 0
499 -790 0
-500 0
-501 0
-502 0
-503 0
-504 0
-505 0
-506 0
-507 0
-508 0
-509 0
-510 0
-511 0
-512 0
-513 0
-514 0
-515 0
-516 0
-517 0
-518 0
-519 0
-520 0
-521 0
-522 0
-523 0
-524 0
-525 0
-526 0
-527 0
-528 0
-529 0
-530 0
-531 0
-532 0
-533 0
-534 0
-535 0
-536 0
-537 0
-538 0
-539 0
-540 0
-541 0
-542 0
-543 0
-544 0
-545 0
-546 0
-547 0
-548 0
-549 0
-550 0
-551 0
-552 0
-553 0
-554 0
-555 0
